
Gurobi 13.0.1 (linux64) logging started Thu Mar 26 05:02:48 2026

Set parameter LogFile to value "logs_sparse/50B_6F_robust_gamma_0d5_theta_0d05199999999999999_2026-03-26_05h02m35s.log"
Set parameter MIPGap to value 0.005
Set parameter OptimalityTol to value 0.005
Gurobi Optimizer version 13.0.1 build v13.0.1rc0 (linux64 - "Linux Mint 22")

CPU model: 12th Gen Intel(R) Core(TM) i7-12700, instruction set [SSE2|AVX|AVX2]
Thread count: 20 physical cores, 20 logical processors, using up to 20 threads

Non-default parameters:
TimeLimit  3600
SoftMemLimit  12
MIPGap  0.005
OptimalityTol  0.005

Optimize a model with 60351 rows, 780571 columns and 2406497 nonzeros (Max)
Model fingerprint: 0xe7379f2a
Model has 735061 linear objective coefficients
Variable types: 15571 continuous, 765000 integer (765000 binary)
Coefficient statistics:
  Matrix range     [3e-05, 1e+05]
  Objective range  [1e+00, 3e+03]
  Bounds range     [1e+00, 1e+05]
  RHS range        [8e-03, 1e+05]

Presolve removed 31036 rows and 564142 columns
Presolve time: 1.38s
Presolved: 29315 rows, 216429 columns, 690965 nonzeros
Variable types: 7521 continuous, 208908 integer (208908 binary)
Found heuristic solution: objective -3.92159e+08
Found heuristic solution: objective -3.90544e+08
Deterministic concurrent LP optimizer: primal simplex, dual simplex, and barrier
Showing barrier log only...

Root barrier log...

Ordering time: 0.42s

Barrier statistics:
 AA' NZ     : 4.006e+05
 Factor NZ  : 3.152e+06 (roughly 120 MB of memory)
 Factor Ops : 6.047e+08 (less than 1 second per iteration)
 Threads    : 18

                  Objective                Residual
Iter       Primal          Dual         Primal    Dual     Compl     Time
   0  -4.95942404e+11  1.05074284e+09  6.85e+06 1.02e+03  6.74e+06     3s
   1  -6.60875843e+10  1.84369350e+09  9.14e+05 1.32e+02  9.17e+05     3s
   2  -3.52534236e+09  1.46869073e+09  4.80e+04 4.21e+01  5.13e+04     3s
   3  -4.53160048e+07  8.75256307e+08  1.75e+03 6.13e-02  3.37e+03     3s
   4   6.63368605e+07  2.78122424e+08  2.46e+02 2.54e-11  5.97e+02     3s
   5   7.57682378e+07  1.70446689e+08  1.18e+02 2.39e-11  2.65e+02     3s
   6   8.08307034e+07  1.37033713e+08  4.98e+01 2.71e-11  1.47e+02     3s
   7   8.33294759e+07  1.16603910e+08  1.76e+01 5.63e-11  8.18e+01     3s
   8   8.38673044e+07  9.65626023e+07  1.14e+01 4.48e-10  3.25e+01     3s
   9   8.45063087e+07  8.95925692e+07  4.27e+00 3.29e-10  1.25e+01     3s
  10   8.47751137e+07  8.83995223e+07  1.73e+00 4.05e-10  8.45e+00     3s
  11   8.49593563e+07  8.61121082e+07  3.21e-01 3.08e-10  2.59e+00     3s
  12   8.50172832e+07  8.56279845e+07  1.99e-01 4.35e-10  1.37e+00     3s
  13   8.51218536e+07  8.53839862e+07  5.18e-02 3.18e-10  5.86e-01     3s
  14   8.51524253e+07  8.52712284e+07  1.68e-02 4.28e-10  2.66e-01     3s
  15   8.51635515e+07  8.52168755e+07  6.18e-03 3.59e-10  1.19e-01     3s
  16   8.51684144e+07  8.51930457e+07  2.58e-03 3.46e-10  5.50e-02     3s
  17   8.51705702e+07  8.51830566e+07  1.32e-03 4.42e-10  2.79e-02     3s
  18   8.51713654e+07  8.51822795e+07  8.88e-04 4.20e-10  2.44e-02     3s
  19   8.51721288e+07  8.51796440e+07  4.98e-04 4.30e-10  1.68e-02     3s
  20   8.51723949e+07  8.51783419e+07  3.73e-04 4.79e-10  1.33e-02     3s
  21   8.51727775e+07  8.51767326e+07  1.96e-04 4.47e-10  8.84e-03     3s
  22   8.51729669e+07  8.51757264e+07  9.11e-05 4.28e-10  6.17e-03     4s
  23   8.51730869e+07  8.51747986e+07  4.80e-05 4.60e-10  3.83e-03     4s
  24   8.51731124e+07  8.51745075e+07  3.63e-05 5.44e-10  3.12e-03     4s
  25   8.51731529e+07  8.51740558e+07  2.00e-05 4.53e-10  2.02e-03     4s
  26   8.51731766e+07  8.51737857e+07  1.28e-05 3.81e-10  1.36e-03     4s
  27   8.51731897e+07  8.51737589e+07  8.89e-06 4.70e-10  1.27e-03     4s
  28   8.51731991e+07  8.51735923e+07  4.88e-06 4.46e-10  8.79e-04     4s
  29   8.51732085e+07  8.51734332e+07  2.50e-06 4.77e-10  5.02e-04     4s
  30   8.51732121e+07  8.51733867e+07  1.59e-06 3.93e-10  3.90e-04     4s
  31   8.51732142e+07  8.51732501e+07  8.28e-07 3.74e-10  8.02e-05     4s
  32   8.51732170e+07  8.51732251e+07  3.85e-07 3.16e-10  1.81e-05     4s
  33   8.51732191e+07  8.51732213e+07  7.91e-08 3.53e-10  4.96e-06     4s
  34   8.51732196e+07  8.51732208e+07  5.89e-08 3.77e-10  2.66e-06     4s
  35   8.51732197e+07  8.51732198e+07  4.06e-08 3.62e-10  2.02e-07     4s
  36   8.51732198e+07  8.51732198e+07  5.75e-08 3.34e-10  3.33e-09     4s

Barrier solved model in 36 iterations and 4.19 seconds (5.92 work units)
Optimal objective 8.51732198e+07

Crossover time: 0.76 seconds (0.81 work units)
Concurrent spin time: 0.01s

Solved with barrier

Root relaxation: objective 8.517322e+07, 15200 iterations, 3.16 seconds (3.78 work units)

    Nodes    |    Current Node    |     Objective Bounds      |     Work
 Expl Unexpl |  Obj  Depth IntInf | Incumbent    BestBd   Gap | It/Node Time

     0     0 8.5173e+07    0 5467 -3.905e+08 8.5173e+07   122%     -    7s
H    0     0                    -2.43555e+08 8.5173e+07   135%     -    8s
H    0     0                    -1.28554e+08 8.5173e+07   166%     -    8s
H    0     0                    -4.08362e+07 8.5173e+07   309%     -    8s
H    0     0                    -1.46073e+07 8.5173e+07   683%     -   11s
H    0     0                    4.934898e+07 8.5173e+07  72.6%     -   14s
H    0     0                    5.219668e+07 8.5173e+07  63.2%     -   15s
H    0     0                    5.262599e+07 8.5173e+07  61.8%     -   16s
     0     0 8.5173e+07    0 5914 5.2626e+07 8.5173e+07  61.8%     -   66s
H    0     0                    5.299280e+07 8.5173e+07  60.7%     -   74s
H    0     0                    5.313957e+07 8.5173e+07  60.3%     -   80s
H    0     0                    5.390496e+07 8.5173e+07  58.0%     -   81s
H    0     0                    5.406757e+07 8.5173e+07  57.5%     -   82s
H    0     0                    5.448957e+07 8.5173e+07  56.3%     -   83s
H    0     0                    5.494959e+07 8.5173e+07  55.0%     -   84s
H    0     0                    5.499436e+07 8.5173e+07  54.9%     -   84s
H    0     0                    6.231109e+07 8.5173e+07  36.7%     -   84s
H    0     0                    6.290122e+07 8.5173e+07  35.4%     -   84s
H    0     0                    6.290122e+07 8.5173e+07  35.4%     -   87s
H    0     0                    6.292462e+07 8.5173e+07  35.4%     -   89s
H    0     0                    6.292471e+07 8.5173e+07  35.4%     -   92s
H    0     0                    6.299179e+07 8.5173e+07  35.2%     -   99s
H    0     0                    6.300379e+07 8.5173e+07  35.2%     -  102s
H    0     0                    6.300493e+07 8.5173e+07  35.2%     -  110s
H    0     0                    6.300537e+07 8.5173e+07  35.2%     -  114s
H    0     0                    6.300610e+07 8.5173e+07  35.2%     -  118s
H    0     0                    6.300640e+07 8.5173e+07  35.2%     -  124s
H    0     0                    6.300690e+07 8.5173e+07  35.2%     -  124s
H    0     0                    6.300789e+07 8.5173e+07  35.2%     -  124s
H    0     0                    6.300830e+07 8.5173e+07  35.2%     -  129s
H    0     0                    6.300839e+07 8.5173e+07  35.2%     -  129s
     0     0 8.5173e+07    0 6019 6.3008e+07 8.5173e+07  35.2%     -  131s
     0     0 8.5173e+07    0 4946 6.3008e+07 8.5173e+07  35.2%     -  187s
H    0     0                    6.348583e+07 8.5173e+07  34.2%     -  217s
H    0     0                    6.431478e+07 8.5173e+07  32.4%     -  218s
H    0     0                    6.523477e+07 8.5173e+07  30.6%     -  219s
H    0     0                    6.719760e+07 8.5173e+07  26.8%     -  224s
H    0     0                    6.742115e+07 8.5173e+07  26.3%     -  225s
H    0     0                    7.014582e+07 8.5173e+07  21.4%     -  229s
H    0     0                    7.268042e+07 8.5173e+07  17.2%     -  231s
H    0     0                    7.299277e+07 8.5173e+07  16.7%     -  236s
H    0     0                    7.304019e+07 8.5173e+07  16.6%     -  243s
H    0     0                    7.332825e+07 8.5173e+07  16.2%     -  246s
H    0     0                    7.360372e+07 8.5173e+07  15.7%     -  248s
H    0     0                    7.388104e+07 8.5173e+07  15.3%     -  248s
H    0     0                    7.388419e+07 8.5173e+07  15.3%     -  248s
H    0     0                    7.397205e+07 8.5173e+07  15.1%     -  248s
H    0     0                    7.416240e+07 8.5173e+07  14.8%     -  248s
H    0     0                    7.433727e+07 8.5173e+07  14.6%     -  255s
     0     0 8.5173e+07    0 5013 7.4337e+07 8.5173e+07  14.6%     -  258s
     0     0 8.5173e+07    0 5667 7.4337e+07 8.5173e+07  14.6%     -  304s
     0     0 8.5173e+07    0 6031 7.4337e+07 8.5173e+07  14.6%     -  311s
     0     0 8.5172e+07    0 6958 7.4337e+07 8.5172e+07  14.6%     -  371s
     0     0 8.5172e+07    0 6958 7.4337e+07 8.5172e+07  14.6%     -  372s
     0     0 8.5172e+07    0 6749 7.4337e+07 8.5172e+07  14.6%     -  373s
     0     2 8.5172e+07    0 6749 7.4337e+07 8.5172e+07  14.6%     -  432s
     1     3 8.5172e+07    1 6495 7.4337e+07 8.5172e+07  14.6% 35832  457s
     2     5 8.5172e+07    2 6082 7.4337e+07 8.5172e+07  14.6% 20796  485s
     4    10 8.5172e+07    2 6359 7.4337e+07 8.5172e+07  14.6% 25856  606s
H    5    10                    7.462727e+07 8.5172e+07  14.1% 20685  606s
H    9    20                    7.463657e+07 8.5172e+07  14.1% 30549  649s
H   10    20                    7.485667e+07 8.5172e+07  13.8% 28208  649s
H   12    20                    7.486697e+07 8.5172e+07  13.8% 24882  649s
H   13    20                    7.536559e+07 8.5172e+07  13.0% 23751  649s
H   16    20                    7.544725e+07 8.5172e+07  12.9% 24087  649s
H   19    40                    7.546656e+07 8.5172e+07  12.9% 22953  773s
H   23    40                    7.563773e+07 8.5172e+07  12.6% 29683  773s
H   27    40                    7.586065e+07 8.5172e+07  12.3% 36060  773s
H   39    48                    7.724874e+07 8.5172e+07  10.3% 56003  902s
H   40    48                    7.916460e+07 8.5172e+07  7.59% 54693  902s
H   44    48                    7.925613e+07 8.5172e+07  7.46% 50305  902s
H   47    54                    8.033951e+07 8.5172e+07  6.02% 47219 1237s
H   50    54                    8.034064e+07 8.5172e+07  6.01% 45562 1237s
H   51    54                    8.150603e+07 8.5172e+07  4.50% 44795 1237s
H   53    57                    8.150631e+07 8.5172e+07  4.50% 43329 1657s
    56    59 8.5172e+07    8 5929 8.1506e+07 8.5172e+07  4.50% 41402 2186s
    58    61 8.5172e+07    9 6191 8.1506e+07 8.5172e+07  4.50% 41874 2867s
H   60    79                    8.156837e+07 8.5172e+07  4.42% 41996 3295s
H   63    79                    8.156939e+07 8.5172e+07  4.42% 40902 3296s

Cutting planes:
  Gomory: 3
  MIR: 25
  Flow cover: 78
  RLT: 3179
  Relax-and-lift: 25

Explored 78 nodes (4214205 simplex iterations) in 3600.07 seconds (2498.72 work units)
Thread count was 20 (of 20 available processors)

Solution count 10: 8.15694e+07 8.15684e+07 8.15063e+07 ... 7.58606e+07

Time limit reached
Best objective 8.156939179983e+07, best bound 8.517244633103e+07, gap 4.4172%
